26 26
22
3 3   19 4 
3 4   16 2 
3 5   4 12
6 3   12 13
3 7   3 7 
8 3   12 10
9 3   17 7 
10 3   13 16
3 11  7 6 
12 3   14 0 
14 3   2 0 
3 15  23 6 
3 16  0 8 
17 3   0 6 
3 19  9 7 
3 4   6 4 
4 4   16 6 
5 4   17 7 
4 7   22 1 
4 8   12 6 
11 4   9 6 
4 14  18 12
